12 32 6 10
19 7 10 10 17 18 13 15 10 20 11 13 15 18 10 12 13 18 6 19 5 1 12 20 7 20 1 9 11 1 6 8 
5.72 15.55 13.72 11.92 11.01 14 15.9 13.93 15.47 4.9 10.41 5.61 0.25 4.17 1.13 3.89 5.6 11.63 4.21 9.92 3.24 10.51 7.3 12.74 12.12 15.58 14.37 5.98 2.06 5.52 9.11 8.66 
1.55 10.19 4.96 12.74 4.13 7.48 14.36 14.35 3.77 15.3 5.09 11.23 12.43 15.86 1.96 6.64 8.27 15.21 5.58 14.68 13.49 9.83 15.16 13.36 11.96 0.91 9.23 0.27 8.3 5.43 11.4 8.07 
11.08 12.3 5.54 8.92 12.07 2.78 7.97 2.81 15.92 6.48 3.49 9.77 11.64 7.36 14.48 8.92 13.89 7.25 10.29 11.22 0.93 13.43 6.72 14.08 5.63 1.64 15.15 4.91 1.87 14.86 9.46 3.31 
3.58 10.58 10.89 5.19 4.82 0.7 9.39 9.26 8.13 0.54 5.41 4.61 13.59 7.87 8.97 3.33 12.14 6 8.86 6.4 8.29 6.21 4.19 5.33 4.72 10.52 10.06 11.6 5.45 2.9 0.87 9.88 
0.08 6.27 7.6 6.6 10.57 10.65 1.48 13.52 12.88 0.22 11.35 3.27 13.24 5.33 2.26 2.92 7.06 10.2 2.74 10.7 15.43 2.62 0.27 10.91 2.74 1.94 10.94 11.47 11.11 9.79 0.07 3.55 
2.24 1.54 1.98 7.09 2.64 4.27 5.01 10.43 10.87 8.02 9.09 6.03 1.3 0.06 3.91 9.69 1.71 3.39 1.71 13.71 14.92 12.36 6.82 6.52 5.87 8.46 13.65 3.64 2.21 6.59 5.71 11.05 
8 8 8 8 8 8 8 8 8 8 8 8 8 8 8 8 8 8 8 8 8 8 8 8 8 8 8 8 8 8 8 8 
15.73 7.51 15.23 2.49 4.72 0.71 1.09 2.43 4.52 14.2 13.69 15.39 13.78 5.81 3.7 14.57 15.44 6.15 2.55 14.08 9.32 2.7 12.18 10.08 11.85 12.01 3.23 4.96 11.47 10.93 13.53 14.73 
1.78 12.69 11.58 5.68 8.9 5.57 0.4 7.81 15.38 2.04 8.04 4.83 0.61 12.63 6.59 2.98 8.15 0.61 15.17 11.63 7.67 8.66 14.46 3.9 2.11 7.11 9.85 11.68 13.26 10.24 9.14 15.53 
10.35 7.27 1.32 14.29 3.39 8.48 14.45 14.49 0.93 3.8 15.85 3.98 13.39 9.1 14.86 15.04 0.59 6.11 2.31 5.13 3.9 0.97 13.12 5.45 14.21 10.86 11.78 8.16 11.11 9.49 6.06 9.69 
12.82 9.6 2.6 1.69 9 13.04 10.42 8.81 4.42 1.95 1.9 11.1 6.45 10.14 6.41 13.7 14.47 1.9 4.14 12.06 10.76 6.73 13.85 8.49 0.38 11.34 5.88 13.61 12.63 6.88 5.17 1.76 
1.23 6.93 7.4 10.78 11.22 5.27 2.09 15.74 3.02 12.68 12.42 13.93 13.68 10.35 13.22 4.22 8.26 12.1 3.49 1.07 9.49 1.52 5.69 9.08 7.91 11.75 7.02 5.26 13.25 12.55 9.14 6.88 
1 1 1 1 1 1 1 1 1 1 1 1 1 1 1 1 1 1 1 1 1 1 1 1 1 1 1 1 1 1 1 1 
1 1 1 1 1 1 1 1 1 1 1 1 1 1 1 1 1 1 1 1 1 1 1 1 1 1 1 1 1 1 1 1 
1 1 1 1 1 1 1 1 1 1 1 1 1 1 1 1 1 1 1 1 1 1 1 1 1 1 1 1 1 1 1 1 
1 1 1 1 1 1 1 1 1 1 1 1 1 1 1 1 1 1 1 1 1 1 1 1 1 1 1 1 1 1 1 1 
1 1 1 1 1 1 1 1 1 1 1 1 1 1 1 1 1 1 1 1 1 1 1 1 1 1 1 1 1 1 1 1 
1 1 1 1 1 1 1 1 1 1 1 1 1 1 1 1 1 1 1 1 1 1 1 1 1 1 1 1 1 1 1 1 
1 1 1 1 1 1 1 1 1 1 1 1 1 1 1 1 1 1 1 1 1 1 1 1 1 1 1 1 1 1 1 1 
1 1 1 1 1 1 1 1 1 1 1 1 1 1 1 1 1 1 1 1 1 1 1 1 1 1 1 1 1 1 1 1 
1 1 1 1 1 1 1 1 1 1 1 1 1 1 1 1 1 1 1 1 1 1 1 1 1 1 1 1 1 1 1 1 
1 1 1 1 1 1 1 1 1 1 1 1 1 1 1 1 1 1 1 1 1 1 1 1 1 1 1 1 1 1 1 1 
1 1 1 1 1 1 1 1 1 1 1 1 1 1 1 1 1 1 1 1 1 1 1 1 1 1 1 1 1 1 1 1 
1 1 1 1 1 1 1 1 1 1 1 1 1 1 1 1 1 1 1 1 1 1 1 1 1 1 1 1 1 1 1 1 
0.01 0.01 0.01 0.01 0.01 0.01 0.01 0.01 0.01 0.01 0.01 0.01 0.01 0.01 0.01 0.01 0.01 0.01 0.01 0.01 0.01 0.01 0.01 0.01 0.01 0.01 0.01 0.01 0.01 0.01 0.01 0.01 
0.02 0.02 0.02 0.02 0.02 0.02 0.02 0.02 0.02 0.02 0.02 0.02 0.02 0.02 0.02 0.02 0.02 0.02 0.02 0.02 0.02 0.02 0.02 0.02 0.02 0.02 0.02 0.02 0.02 0.02 0.02 0.02 
0.03 0.03 0.03 0.03 0.03 0.03 0.03 0.03 0.03 0.03 0.03 0.03 0.03 0.03 0.03 0.03 0.03 0.03 0.03 0.03 0.03 0.03 0.03 0.03 0.03 0.03 0.03 0.03 0.03 0.03 0.03 0.03 
0.04 0.04 0.04 0.04 0.04 0.04 0.04 0.04 0.04 0.04 0.04 0.04 0.04 0.04 0.04 0.04 0.04 0.04 0.04 0.04 0.04 0.04 0.04 0.04 0.04 0.04 0.04 0.04 0.04 0.04 0.04 0.04 
0.05 0.05 0.05 0.05 0.05 0.05 0.05 0.05 0.05 0.05 0.05 0.05 0.05 0.05 0.05 0.05 0.05 0.05 0.05 0.05 0.05 0.05 0.05 0.05 0.05 0.05 0.05 0.05 0.05 0.05 0.05 0.05 
0.06 0.06 0.06 0.06 0.06 0.06 0.06 0.06 0.06 0.06 0.06 0.06 0.06 0.06 0.06 0.06 0.06 0.06 0.06 0.06 0.06 0.06 0.06 0.06 0.06 0.06 0.06 0.06 0.06 0.06 0.06 0.06 
0.07 0.07 0.07 0.07 0.07 0.07 0.07 0.07 0.07 0.07 0.07 0.07 0.07 0.07 0.07 0.07 0.07 0.07 0.07 0.07 0.07 0.07 0.07 0.07 0.07 0.07 0.07 0.07 0.07 0.07 0.07 0.07 
0.2 0.2 0.2 0.2 0.2 0.2 0.2 0.2 0.2 0.2 0.2 0.2 0.2 0.2 0.2 0.2 0.2 0.2 0.2 0.2 0.2 0.2 0.2 0.2 0.2 0.2 0.2 0.2 0.2 0.2 0.2 0.2 
0.4 0.4 0.4 0.4 0.4 0.4 0.4 0.4 0.4 0.4 0.4 0.4 0.4 0.4 0.4 0.4 0.4 0.4 0.4 0.4 0.4 0.4 0.4 0.4 0.4 0.4 0.4 0.4 0.4 0.4 0.4 0.4 
0.6 0.6 0.6 0.6 0.6 0.6 0.6 0.6 0.6 0.6 0.6 0.6 0.6 0.6 0.6 0.6 0.6 0.6 0.6 0.6 0.6 0.6 0.6 0.6 0.6 0.6 0.6 0.6 0.6 0.6 0.6 0.6 
0.8 0.8 0.8 0.8 0.8 0.8 0.8 0.8 0.8 0.8 0.8 0.8 0.8 0.8 0.8 0.8 0.8 0.8 0.8 0.8 0.8 0.8 0.8 0.8 0.8 0.8 0.8 0.8 0.8 0.8 0.8 0.8 
1 1 1 1 1 1 1 1 1 1 1 1 1 1 1 1 1 1 1 1 1 1 1 1 1 1 1 1 1 1 1 1 
